single conv molq qok noenergy
cell
 33.98200  33.98200  33.98200  90.00000  90.00000  90.00000
fractional
C1        0.6923599      0.5078354      0.8139343       0.4291000
C2        0.6880951      0.9534531      0.8461838      -0.0839000
H2        0.6927185      0.9333496      0.8641357       0.1128000
C3        0.7069016      0.5466461      0.7993927      -0.4526000
N1        0.7087250      0.9880600      0.8438339      -0.3879000
Zn        0.7538376      0.5038910      0.8774338       0.6918000
C1        0.5077972      0.8153763      0.6909561       0.4291000
C2        0.9534149      0.8196487      0.6587067      -0.0839000
H2        0.9333115      0.8150253      0.6407547       0.1128000
C3        0.5466080      0.8008423      0.7054901      -0.4526000
N1        0.9880219      0.7990189      0.6610565      -0.3879000
Zn        0.5038528      0.7538757      0.6274490       0.6918000
C1        0.8153381      0.9999466      0.8139343       0.4291000
C2        0.8196106      0.5543289      0.8461838      -0.0839000
H2        0.8149872      0.5744247      0.8641357       0.1128000
C3        0.8008041      0.9611359      0.7993927      -0.4526000
H3        0.7744980      0.9639893      0.7895966       0.1318667
H3        0.8009491      0.9425049      0.8206406       0.1318667
H3        0.8176651      0.9519501      0.7787094       0.1318667
N1        0.7989807      0.5197220      0.8438339      -0.3879000
C1        0.9999084      0.6923981      0.6909561       0.4291000
C2        0.5542908      0.6881332      0.6587067      -0.0839000
H2        0.5743866      0.6927567      0.6407547       0.1128000
C3        0.9610977      0.7069397      0.7054901      -0.4526000
H3        0.9639511      0.7332458      0.7152939       0.1318667
H3        0.9424667      0.7067947      0.6842499       0.1318667
H3        0.9519119      0.6900787      0.7261810       0.1318667
N1        0.5196838      0.7087631      0.6610565      -0.3879000
C1        0.6923599      0.9999466      0.6909561       0.4291000
C2        0.6880951      0.5543289      0.6587067      -0.0839000
H2        0.6927185      0.5744247      0.6407547       0.1128000
C3        0.7069016      0.9611359      0.7054901      -0.4526000
N1        0.7087250      0.5197220      0.6610565      -0.3879000
Zn        0.7538376      0.5038910      0.6274490       0.6918000
C1        0.9999084      0.8153763      0.8139343       0.4291000
C2        0.5542908      0.8196487      0.8461838      -0.0839000
H2        0.5743866      0.8150253      0.8641357       0.1128000
C3        0.9610977      0.8008423      0.7993927      -0.4526000
N1        0.5196838      0.7990189      0.8438339      -0.3879000
Zn        0.5038528      0.7538757      0.8774338       0.6918000
C1        0.8153381      0.5078354      0.6909561       0.4291000
C2        0.8196106      0.9534531      0.6587067      -0.0839000
H2        0.8149872      0.9333496      0.6407547       0.1128000
C3        0.8008041      0.5466461      0.7054901      -0.4526000
H3        0.7744980      0.5437927      0.7152939       0.1318667
H3        0.8009491      0.5652771      0.6842499       0.1318667
H3        0.8176651      0.5558319      0.7261810       0.1318667
N1        0.7989807      0.9880600      0.6610565      -0.3879000
C1        0.5077972      0.6923981      0.8139343       0.4291000
C2        0.9534149      0.6881332      0.8461838      -0.0839000
H2        0.9333115      0.6927567      0.8641357       0.1128000
C3        0.5466080      0.7069397      0.7993927      -0.4526000
H3        0.5437546      0.7332458      0.7895966       0.1318667
H3        0.5652390      0.7067947      0.8206406       0.1318667
H3        0.5557938      0.6900787      0.7787094       0.1318667
N1        0.9880219      0.7087631      0.8438339      -0.3879000
C1        0.8153381      0.6923981      0.5063858       0.4291000
C2        0.8475952      0.6881332      0.9520035      -0.0839000
H2        0.8655472      0.6927567      0.9319077       0.1128000
C3        0.8008041      0.7069397      0.5452042      -0.4526000
N1        0.8452377      0.7087631      0.9866104      -0.3879000
Zn        0.8788452      0.7538757      0.5024414       0.6918000
C1        0.6923599      0.6923981      0.9985046       0.4291000
C2        0.6880951      0.6601486      0.5528793      -0.0839000
H2        0.6927185      0.6421967      0.5729828       0.1128000
C3        0.7069016      0.7069397      0.9596863      -0.4526000
H3        0.7332077      0.7167358      0.9625397       0.1318667
H3        0.7067566      0.6856918      0.9410629       0.1318667
H3        0.6900406      0.7276230      0.9505081       0.1318667
N1        0.7087250      0.6625061      0.5182800      -0.3879000
Zn        0.7538376      0.6288986      0.5024414       0.6918000
C1        0.6923599      0.8153763      0.5063858       0.4291000
C2        0.6601105      0.8196487      0.9520035      -0.0839000
H2        0.6421585      0.8150253      0.9319077       0.1128000
C3        0.7069016      0.8008423      0.5452042      -0.4526000
N1        0.6624680      0.7990189      0.9866104      -0.3879000
Zn        0.6288605      0.7538757      0.5024414       0.6918000
C1        0.8153381      0.8153763      0.9985046       0.4291000
C2        0.8196106      0.8476334      0.5528793      -0.0839000
H2        0.8149872      0.8655853      0.5729828       0.1128000
C3        0.8008041      0.8008423      0.9596863      -0.4526000
H3        0.7744980      0.7910385      0.9625397       0.1318667
H3        0.8009491      0.8220901      0.9410629       0.1318667
H3        0.8176651      0.7801514      0.9505081       0.1318667
N1        0.7989807      0.8452759      0.5182800      -0.3879000
Zn        0.7538376      0.8788834      0.5024414       0.6918000
C2        0.8475952      0.8196487      0.5528793      -0.0839000
H2        0.8655472      0.8150253      0.5729828       0.1128000
N1        0.8452377      0.7990189      0.5182800      -0.3879000
C2        0.8196106      0.6601486      0.9520035      -0.0839000
H2        0.8149872      0.6421967      0.9319077       0.1128000
H3        0.7744980      0.7167358      0.5423508       0.1318667
H3        0.8009491      0.6856918      0.5638275       0.1318667
H3        0.8176651      0.7276230      0.5543823       0.1318667
N1        0.7989807      0.6625061      0.9866104      -0.3879000
C2        0.6601105      0.6881332      0.5528793      -0.0839000
H2        0.6421585      0.6927567      0.5729828       0.1128000
N1        0.6624680      0.7087631      0.5182800      -0.3879000
C2        0.6880951      0.8476334      0.9520035      -0.0839000
H2        0.6927185      0.8655853      0.9319077       0.1128000
H3        0.7332077      0.7910385      0.5423508       0.1318667
H3        0.7067566      0.8220901      0.5638275       0.1318667
H3        0.6900406      0.7801514      0.5543823       0.1318667
N1        0.7087250      0.8452759      0.9866104      -0.3879000
C2        0.9534149      0.8476334      0.6866913      -0.0839000
H2        0.9333115      0.8655853      0.6913071       0.1128000
H3        0.5437546      0.7910385      0.7318039       0.1318667
H3        0.5652390      0.8220901      0.7053452       0.1318667
H3        0.5557938      0.7801514      0.6886292       0.1318667
N1        0.9880219      0.8452759      0.7073212      -0.3879000
Zn        0.5038528      0.8788834      0.7524261       0.6918000
C2        0.9534149      0.6601486      0.8181992      -0.0839000
H2        0.9333115      0.6421967      0.8135834       0.1128000
N1        0.9880219      0.6625061      0.7975693      -0.3879000
Zn        0.5038528      0.6288986      0.7524261       0.6918000
C2        0.6601105      0.5543289      0.6866913      -0.0839000
H2        0.6421585      0.5744247      0.6913071       0.1128000
H3        0.7166977      0.9639893      0.7318039       0.1318667
H3        0.6856537      0.9425049      0.7053452       0.1318667
H3        0.7275848      0.9519501      0.6886292       0.1318667
N1        0.6624680      0.5197220      0.7073212      -0.3879000
Zn        0.6288605      0.5038910      0.7524261       0.6918000
C2        0.5542908      0.8476334      0.8181992      -0.0839000
H2        0.5743866      0.8655853      0.8135834       0.1128000
H3        0.9639511      0.7910385      0.7730865       0.1318667
H3        0.9424667      0.8220901      0.7995453       0.1318667
H3        0.9519119      0.7801514      0.8162613       0.1318667
N1        0.5196838      0.8452759      0.7975693      -0.3879000
C2        0.8475952      0.9534531      0.6866913      -0.0839000
H2        0.8655472      0.9333496      0.6913071       0.1128000
N1        0.8452377      0.9880600      0.7073212      -0.3879000
Zn        0.8788452      0.5038910      0.7524261       0.6918000
C2        0.5542908      0.6601486      0.6866913      -0.0839000
H2        0.5743866      0.6421967      0.6913071       0.1128000
N1        0.5196838      0.6625061      0.7073212      -0.3879000
C2        0.6601105      0.9534531      0.8181992      -0.0839000
H2        0.6421585      0.9333496      0.8135834       0.1128000
H3        0.7166977      0.5437927      0.7730865       0.1318667
H3        0.6856537      0.5652771      0.7995453       0.1318667
H3        0.7275848      0.5558319      0.8162613       0.1318667
N1        0.6624680      0.9880600      0.7975693      -0.3879000
C2        0.8475952      0.5543289      0.8181992      -0.0839000
H2        0.8655472      0.5744247      0.8135834       0.1128000
N1        0.8452377      0.5197220      0.7975693      -0.3879000
C1        0.9423752      0.7578506      0.5639191       0.4291000
C2        0.9381104      0.7034683      0.5961990      -0.0839000
H2        0.9427032      0.6833344      0.6141510       0.1128000
C3        0.9569168      0.7966309      0.5493774      -0.4526000
H3        0.9831924      0.7937775      0.5395813       0.1318667
H3        0.9567413      0.8152924      0.5706558       0.1318667
H3        0.9400558      0.8058472      0.5286942       0.1318667
N1        0.9587097      0.7380447      0.5938492      -0.3879000
C1        0.7578125      0.5653610      0.9409714       0.4291000
C2        0.7034302      0.5696335      0.9086914      -0.0839000
H2        0.6833038      0.5650406      0.8907394       0.1128000
C3        0.7965927      0.5508270      0.9555054      -0.4526000
N1        0.7380066      0.5490341      0.9110413      -0.3879000
C1        0.5653229      0.7499313      0.5639191       0.4291000
C2        0.5695953      0.8043137      0.5961990      -0.0839000
H2        0.5650024      0.8244400      0.6141510       0.1128000
C3        0.5507889      0.7111435      0.5493774      -0.4526000
H3        0.5245132      0.7140045      0.5395813       0.1318667
H3        0.5509644      0.6924896      0.5706558       0.1318667
H3        0.5676498      0.7019348      0.5286942       0.1318667
N1        0.5489960      0.7697372      0.5938492      -0.3879000
C1        0.7498932      0.9424133      0.9409714       0.4291000
C2        0.8042755      0.9381485      0.9086914      -0.0839000
H2        0.8244019      0.9427414      0.8907394       0.1128000
C3        0.7111053      0.9569550      0.9555054      -0.4526000
H3        0.7139664      0.9832306      0.9653091       0.1318667
H3        0.6924515      0.9567795      0.9342346       0.1318667
H3        0.7018967      0.9400940      0.9761963       0.1318667
N1        0.7696991      0.9587479      0.9110413      -0.3879000
C1        0.9423752      0.7499313      0.9409714       0.4291000
C2        0.9381104      0.8043137      0.9086914      -0.0839000
H2        0.9427032      0.8244400      0.8907394       0.1128000
C3        0.9569168      0.7111435      0.9555054      -0.4526000
H3        0.9831924      0.7140045      0.9653091       0.1318667
H3        0.9567413      0.6924896      0.9342346       0.1318667
H3        0.9400558      0.7019348      0.9761963       0.1318667
N1        0.9587097      0.7697372      0.9110413      -0.3879000
C1        0.7498932      0.5653610      0.5639191       0.4291000
C2        0.8042755      0.5696335      0.5961990      -0.0839000
H2        0.8244019      0.5650406      0.6141510       0.1128000
C3        0.7111053      0.5508270      0.5493774      -0.4526000
N1        0.7696991      0.5490341      0.5938492      -0.3879000
C1        0.5653229      0.7578506      0.9409714       0.4291000
C2        0.5695953      0.7034683      0.9086914      -0.0839000
H2        0.5650024      0.6833344      0.8907394       0.1128000
C3        0.5507889      0.7966309      0.9555054      -0.4526000
N1        0.5489960      0.7380447      0.9110413      -0.3879000
C1        0.7578125      0.9424133      0.5639191       0.4291000
C2        0.7034302      0.9381485      0.5961990      -0.0839000
H2        0.6833038      0.9427414      0.6141510       0.1128000
C3        0.7965927      0.9569550      0.5493774      -0.4526000
N1        0.7380066      0.9587479      0.5938492      -0.3879000
C1        0.5653229      0.9424133      0.7564011       0.4291000
C2        0.5976105      0.9381485      0.7020187      -0.0839000
H2        0.6155548      0.9427414      0.6818924       0.1128000
C3        0.5507889      0.9569550      0.7951889      -0.4526000
N1        0.5952530      0.9587479      0.7365952      -0.3879000
C1        0.9423752      0.9424133      0.7484894       0.4291000
C2        0.9381104      0.9101334      0.8028717      -0.0839000
H2        0.9427032      0.8921814      0.8229980       0.1128000
C3        0.9569168      0.9569550      0.7097015      -0.4526000
H3        0.9831924      0.9667511      0.7125549       0.1318667
H3        0.9567413      0.9356766      0.6910477       0.1318667
H3        0.9400558      0.9776382      0.7004929       0.1318667
N1        0.9587097      0.9124908      0.7682877      -0.3879000
C1        0.9423752      0.5653610      0.7564011       0.4291000
C2        0.9100952      0.5696335      0.7020187      -0.0839000
H2        0.8921432      0.5650406      0.6818924       0.1128000
C3        0.9569168      0.5508270      0.7951889      -0.4526000
N1        0.9124527      0.5490341      0.7365952      -0.3879000
C1        0.5653229      0.5653610      0.7484894       0.4291000
C2        0.5695953      0.5976486      0.8028717      -0.0839000
H2        0.5650024      0.6155930      0.8229980       0.1128000
C3        0.5507889      0.5508270      0.7097015      -0.4526000
H3        0.5245132      0.5410309      0.7125549       0.1318667
H3        0.5509644      0.5721054      0.6910477       0.1318667
H3        0.5676498      0.5301361      0.7004929       0.1318667
N1        0.5489960      0.5952911      0.7682877      -0.3879000
C2        0.5976105      0.5696335      0.8028717      -0.0839000
H2        0.6155548      0.5650406      0.8229980       0.1128000
N1        0.5952530      0.5490341      0.7682877      -0.3879000
C2        0.5695953      0.9101334      0.7020187      -0.0839000
H2        0.5650024      0.8921814      0.6818924       0.1128000
H3        0.5245132      0.9667511      0.7923355       0.1318667
H3        0.5509644      0.9356766      0.8138428       0.1318667
H3        0.5676498      0.9776382      0.8043976       0.1318667
N1        0.5489960      0.9124908      0.7365952      -0.3879000
C2        0.9100952      0.9381485      0.8028717      -0.0839000
H2        0.8921432      0.9427414      0.8229980       0.1128000
N1        0.9124527      0.9587479      0.7682877      -0.3879000
C2        0.9381104      0.5976486      0.7020187      -0.0839000
H2        0.9427032      0.6155930      0.6818924       0.1128000
H3        0.9831924      0.5410309      0.7923355       0.1318667
H3        0.9567413      0.5721054      0.8138428       0.1318667
H3        0.9400558      0.5301361      0.8043976       0.1318667
N1        0.9587097      0.5952911      0.7365952      -0.3879000
C2        0.7034302      0.5976486      0.9367065      -0.0839000
H2        0.6833038      0.6155930      0.9412918       0.1128000
H3        0.7937393      0.5410309      0.9817886       0.1318667
H3        0.8152542      0.5721054      0.9553299       0.1318667
H3        0.8058090      0.5301361      0.9386444       0.1318667
N1        0.7380066      0.5952911      0.9573059      -0.3879000
C2        0.7034302      0.9101334      0.5681839      -0.0839000
H2        0.6833038      0.8921814      0.5635910       0.1128000
H3        0.7937393      0.9667511      0.5231018       0.1318667
H3        0.8152542      0.9356766      0.5495605       0.1318667
H3        0.8058090      0.9776382      0.5662460       0.1318667
N1        0.7380066      0.9124908      0.5475845      -0.3879000
C2        0.9100952      0.8043137      0.9367065      -0.0839000
H2        0.8921432      0.8244400      0.9412918       0.1128000
N1        0.9124527      0.7697372      0.9573059      -0.3879000
C2        0.8042755      0.5976486      0.5681839      -0.0839000
H2        0.8244019      0.6155930      0.5635910       0.1128000
H3        0.7139664      0.5410309      0.5231018       0.1318667
H3        0.6924515      0.5721054      0.5495605       0.1318667
H3        0.7018967      0.5301361      0.5662460       0.1318667
N1        0.7696991      0.5952911      0.5475845      -0.3879000
C2        0.5976105      0.7034683      0.9367065      -0.0839000
H2        0.6155548      0.6833344      0.9412918       0.1128000
H3        0.5409927      0.7937775      0.9817886       0.1318667
H3        0.5720673      0.8152924      0.9553299       0.1318667
H3        0.5300980      0.8058472      0.9386444       0.1318667
N1        0.5952530      0.7380447      0.9573059      -0.3879000
C2        0.8042755      0.9101334      0.9367065      -0.0839000
H2        0.8244019      0.8921814      0.9412918       0.1128000
N1        0.7696991      0.9124908      0.9573059      -0.3879000
C2        0.9100952      0.7034683      0.5681839      -0.0839000
H2        0.8921432      0.6833344      0.5635910       0.1128000
N1        0.9124527      0.7380447      0.5475845      -0.3879000
C2        0.5976105      0.8043137      0.5681839      -0.0839000
H2        0.6155548      0.8244400      0.5635910       0.1128000
N1        0.5952530      0.7697372      0.5475845      -0.3879000
C1        0.6923599      0.5078354      0.3139343       0.4291000
C2        0.6880951      0.9534531      0.3461838      -0.0839000
H2        0.6927185      0.9333496      0.3641357       0.1128000
C3        0.7069016      0.5466461      0.2993927      -0.4526000
N1        0.7087250      0.9880600      0.3438339      -0.3879000
Zn        0.7538681      0.5038910      0.3774338       0.6918000
C1        0.5077972      0.8153763      0.1909561       0.4291000
C2        0.9534149      0.8196487      0.1587067      -0.0839000
H2        0.9333115      0.8150253      0.1407547       0.1128000
C3        0.5466080      0.8008423      0.2054901      -0.4526000
N1        0.9880219      0.7990189      0.1610565      -0.3879000
Zn        0.5038528      0.7539062      0.1274490       0.6918000
C1        0.8153381      0.9999466      0.3139343       0.4291000
C2        0.8196106      0.5543289      0.3461838      -0.0839000
H2        0.8149872      0.5744247      0.3641357       0.1128000
C3        0.8008041      0.9611359      0.2993927      -0.4526000
H3        0.7744980      0.9639893      0.2895966       0.1318667
H3        0.8009491      0.9425049      0.3206406       0.1318667
H3        0.8176651      0.9519501      0.2787094       0.1318667
N1        0.7989807      0.5197220      0.3438339      -0.3879000
C1        0.9999084      0.6923981      0.1909561       0.4291000
C2        0.5542908      0.6881332      0.1587067      -0.0839000
H2        0.5743866      0.6927567      0.1407547       0.1128000
C3        0.9610977      0.7069397      0.2054901      -0.4526000
H3        0.9639511      0.7332458      0.2152939       0.1318667
H3        0.9424667      0.7067947      0.1842499       0.1318667
H3        0.9519119      0.6900787      0.2261810       0.1318667
N1        0.5196838      0.7087631      0.1610565      -0.3879000
C1        0.6923599      0.9999466      0.1909561       0.4291000
C2        0.6880951      0.5543289      0.1587067      -0.0839000
H2        0.6927185      0.5744247      0.1407547       0.1128000
C3        0.7069016      0.9611359      0.2054901      -0.4526000
N1        0.7087250      0.5197220      0.1610565      -0.3879000
Zn        0.7538681      0.5038910      0.1274490       0.6918000
C1        0.9999084      0.8153763      0.3139343       0.4291000
C2        0.5542908      0.8196487      0.3461838      -0.0839000
H2        0.5743866      0.8150253      0.3641357       0.1128000
C3        0.9610977      0.8008423      0.2993927      -0.4526000
N1        0.5196838      0.7990189      0.3438339      -0.3879000
Zn        0.5038528      0.7539062      0.3774338       0.6918000
C1        0.8153381      0.5078354      0.1909561       0.4291000
C2        0.8196106      0.9534531      0.1587067      -0.0839000
H2        0.8149872      0.9333496      0.1407547       0.1128000
C3        0.8008041      0.5466461      0.2054901      -0.4526000
H3        0.7744980      0.5437927      0.2152939       0.1318667
H3        0.8009491      0.5652771      0.1842499       0.1318667
H3        0.8176651      0.5558319      0.2261810       0.1318667
N1        0.7989807      0.9880600      0.1610565      -0.3879000
C1        0.5077972      0.6923981      0.3139343       0.4291000
C2        0.9534149      0.6881332      0.3461838      -0.0839000
H2        0.9333115      0.6927567      0.3641357       0.1128000
C3        0.5466080      0.7069397      0.2993927      -0.4526000
H3        0.5437546      0.7332458      0.2895966       0.1318667
H3        0.5652390      0.7067947      0.3206406       0.1318667
H3        0.5557938      0.6900787      0.2787094       0.1318667
N1        0.9880219      0.7087631      0.3438339      -0.3879000
C1        0.8153381      0.6923981      0.0063858       0.4291000
C2        0.8475952      0.6881332      0.4520035      -0.0839000
H2        0.8655472      0.6927567      0.4319077       0.1128000
C3        0.8008041      0.7069397      0.0452042      -0.4526000
N1        0.8452377      0.7087631      0.4866104      -0.3879000
Zn        0.8788452      0.7539062      0.0024414       0.6918000
C1        0.6923599      0.6923981      0.4985046       0.4291000
C2        0.6880951      0.6601486      0.0528793      -0.0839000
H2        0.6927185      0.6421967      0.0729828       0.1128000
C3        0.7069016      0.7069397      0.4596863      -0.4526000
H3        0.7332077      0.7167358      0.4625397       0.1318667
H3        0.7067566      0.6856918      0.4410629       0.1318667
H3        0.6900406      0.7276230      0.4505081       0.1318667
N1        0.7087250      0.6625061      0.0182800      -0.3879000
Zn        0.7538681      0.6288986      0.0024414       0.6918000
C1        0.6923599      0.8153763      0.0063858       0.4291000
C2        0.6601105      0.8196487      0.4520035      -0.0839000
H2        0.6421585      0.8150253      0.4319077       0.1128000
C3        0.7069016      0.8008423      0.0452042      -0.4526000
N1        0.6624680      0.7990189      0.4866104      -0.3879000
Zn        0.6288605      0.7539062      0.0024414       0.6918000
C1        0.8153381      0.8153763      0.4985046       0.4291000
C2        0.8196106      0.8476334      0.0528793      -0.0839000
H2        0.8149872      0.8655853      0.0729828       0.1128000
C3        0.8008041      0.8008423      0.4596863      -0.4526000
H3        0.7744980      0.7910385      0.4625397       0.1318667
H3        0.8009491      0.8220901      0.4410629       0.1318667
H3        0.8176651      0.7801514      0.4505081       0.1318667
N1        0.7989807      0.8452759      0.0182800      -0.3879000
Zn        0.7538681      0.8788834      0.0024414       0.6918000
C2        0.8475952      0.8196487      0.0528793      -0.0839000
H2        0.8655472      0.8150253      0.0729828       0.1128000
N1        0.8452377      0.7990189      0.0182800      -0.3879000
C2        0.8196106      0.6601486      0.4520035      -0.0839000
H2        0.8149872      0.6421967      0.4319077       0.1128000
H3        0.7744980      0.7167358      0.0423508       0.1318667
H3        0.8009491      0.6856918      0.0638275       0.1318667
H3        0.8176651      0.7276230      0.0543823       0.1318667
N1        0.7989807      0.6625061      0.4866104      -0.3879000
C2        0.6601105      0.6881332      0.0528793      -0.0839000
H2        0.6421585      0.6927567      0.0729828       0.1128000
N1        0.6624680      0.7087631      0.0182800      -0.3879000
C2        0.6880951      0.8476334      0.4520035      -0.0839000
H2        0.6927185      0.8655853      0.4319077       0.1128000
H3        0.7332077      0.7910385      0.0423508       0.1318667
H3        0.7067566      0.8220901      0.0638275       0.1318667
H3        0.6900406      0.7801514      0.0543823       0.1318667
N1        0.7087250      0.8452759      0.4866104      -0.3879000
C2        0.9534149      0.8476334      0.1866913      -0.0839000
H2        0.9333115      0.8655853      0.1913071       0.1128000
H3        0.5437546      0.7910385      0.2318039       0.1318667
H3        0.5652390      0.8220901      0.2053452       0.1318667
H3        0.5557938      0.7801514      0.1886292       0.1318667
N1        0.9880219      0.8452759      0.2073212      -0.3879000
Zn        0.5038528      0.8788834      0.2524261       0.6918000
C2        0.9534149      0.6601486      0.3181992      -0.0839000
H2        0.9333115      0.6421967      0.3135834       0.1128000
N1        0.9880219      0.6625061      0.2975693      -0.3879000
Zn        0.5038528      0.6288986      0.2524261       0.6918000
C2        0.6601105      0.5543289      0.1866913      -0.0839000
H2        0.6421585      0.5744247      0.1913071       0.1128000
H3        0.7166977      0.9639893      0.2318039       0.1318667
H3        0.6856537      0.9425049      0.2053452       0.1318667
H3        0.7275848      0.9519501      0.1886292       0.1318667
N1        0.6624680      0.5197220      0.2073212      -0.3879000
Zn        0.6288605      0.5038910      0.2524261       0.6918000
C2        0.5542908      0.8476334      0.3181992      -0.0839000
H2        0.5743866      0.8655853      0.3135834       0.1128000
H3        0.9639511      0.7910385      0.2730865       0.1318667
H3        0.9424667      0.8220901      0.2995453       0.1318667
H3        0.9519119      0.7801514      0.3162613       0.1318667
N1        0.5196838      0.8452759      0.2975693      -0.3879000
C2        0.8475952      0.9534531      0.1866913      -0.0839000
H2        0.8655472      0.9333496      0.1913071       0.1128000
N1        0.8452377      0.9880600      0.2073212      -0.3879000
Zn        0.8788452      0.5038910      0.2524261       0.6918000
C2        0.5542908      0.6601486      0.1866913      -0.0839000
H2        0.5743866      0.6421967      0.1913071       0.1128000
N1        0.5196838      0.6625061      0.2073212      -0.3879000
C2        0.6601105      0.9534531      0.3181992      -0.0839000
H2        0.6421585      0.9333496      0.3135834       0.1128000
H3        0.7166977      0.5437927      0.2730865       0.1318667
H3        0.6856537      0.5652771      0.2995453       0.1318667
H3        0.7275848      0.5558319      0.3162613       0.1318667
N1        0.6624680      0.9880600      0.2975693      -0.3879000
C2        0.8475952      0.5543289      0.3181992      -0.0839000
H2        0.8655472      0.5744247      0.3135834       0.1128000
N1        0.8452377      0.5197220      0.2975693      -0.3879000
C1        0.9423752      0.7578506      0.0639191       0.4291000
C2        0.9381104      0.7034683      0.0961990      -0.0839000
H2        0.9427032      0.6833344      0.1141510       0.1128000
C3        0.9569168      0.7966309      0.0493774      -0.4526000
H3        0.9831924      0.7937775      0.0395813       0.1318667
H3        0.9567413      0.8152924      0.0706558       0.1318667
H3        0.9400558      0.8058472      0.0286941       0.1318667
N1        0.9587097      0.7380447      0.0938492      -0.3879000
C1        0.7578125      0.5653610      0.4409714       0.4291000
C2        0.7034302      0.5696335      0.4086914      -0.0839000
H2        0.6833038      0.5650406      0.3907394       0.1128000
C3        0.7965927      0.5508270      0.4555054      -0.4526000
N1        0.7380066      0.5490341      0.4110413      -0.3879000
C1        0.5653229      0.7499313      0.0639191       0.4291000
C2        0.5695953      0.8043137      0.0961990      -0.0839000
H2        0.5650024      0.8244400      0.1141510       0.1128000
C3        0.5507889      0.7111435      0.0493774      -0.4526000
H3        0.5245132      0.7140045      0.0395813       0.1318667
H3        0.5509644      0.6924896      0.0706558       0.1318667
H3        0.5676498      0.7019348      0.0286941       0.1318667
N1        0.5489960      0.7697372      0.0938492      -0.3879000
C1        0.7498932      0.9424133      0.4409714       0.4291000
C2        0.8042755      0.9381485      0.4086914      -0.0839000
H2        0.8244019      0.9427414      0.3907394       0.1128000
C3        0.7111053      0.9569550      0.4555054      -0.4526000
H3        0.7139664      0.9832306      0.4653091       0.1318667
H3        0.6924515      0.9567795      0.4342346       0.1318667
H3        0.7018967      0.9400940      0.4761963       0.1318667
N1        0.7696991      0.9587479      0.4110413      -0.3879000
C1        0.9423752      0.7499313      0.4409714       0.4291000
C2        0.9381104      0.8043137      0.4086914      -0.0839000
H2        0.9427032      0.8244400      0.3907394       0.1128000