SimulationType                MonteCarlo
NumberOfCycles                CYCLESEVERY
NumberOfInitializationCycles  INITCYCLES
PrintPropertiesEvery          100
PrintEvery                    100
RandomSeed                    RANDOMSEED
Forcefield                    Local
CutOff                        16.709 # sigma*4.9 # Tanaka et al.
ChargeMethod                  Ewald
Framework                     0
RemoveAtomNumberCodeFromLabel no
FrameworkName                 STRUCTURE
UnitCells                     SUPERCELL
ExternalTemperature           TEMPERATURE
ExternalPressure              PRESSURE

Movies             yes
WriteMoviesEvery   MOVIESEVERY
FlexibleFramework  yes

Component 0 MoleculeName               GUEST
            MoleculeDefinition         Local
            IdealGasRosenbluthWeight   5.34756e-07
            FugacityCoefficient        1.0
            TranslationProbability     1.0
            RegrowProbability          1.0
            RotationProbability        1.0
            SwapProbability            1.0
            WidomProbability           1.0
            CFSwapLambdaProbability    0.0
            RestrictMovesToCylinder  yes
             Cylinder          0
             CylinderCenter    0 0 0
             CylinderRadius    10.0
             CylinderDirection Z
             Cylinder          1
             CylinderCenter    0.5 0 0
             CylinderRadius    10.0
             CylinderDirection Z
             Cylinder          2
             CylinderCenter    0 0.5 0
             CylinderRadius    10.0
             CylinderDirection Z
             Cylinder          3
             CylinderCenter    0.5 0.5 0
             CylinderRadius    10.0
             CylinderDirection Z
            CreateNumberOfMolecules    0
